c User generated cnf file
p cnf 15 83
4 -14 13 0 
8 10 -7 0 
6 15 -11 0 
2 10 -6 0 
-6 4 2 0 
-4 14 7 0 
-1 14 15 0 
-8 15 3 0 
5 1 -3 0 
11 15 -14 0 
11 10 -9 0 
8 1 -12 0 
4 -13 1 0 
-15 7 4 0 
10 12 -7 0 
-13 11 7 0 
4 -15 8 0 
-8 2 7 0 
15 -14 6 0 
-14 12 7 0 
12 -2 9 0 
-3 1 8 0 
10 3 -3 0 
3 -6 1 0 
7 13 -9 0 
6 -3 10 0 
-10 9 1 0 
3 7 -7 0 
-3 4 13 0 
-9 5 3 0 
-1 8 6 0 
-4 3 7 0 
7 14 -8 0 
7 3 -1 0 
8 -8 9 0 
2 10 -13 0 
-4 8 8 0 
4 1 -3 0 
15 -1 11 0 
7 9 -10 0 
-6 15 6 0 
-11 5 15 0 
8 11 -3 0 
7 -8 9 0 
13 10 -7 0 
8 -14 9 0 
-14 8 7 0 
4 -13 11 0 
4 2 -9 0 
-8 5 10 0 
1 -3 2 0 
1 7 -7 0 
-6 9 7 0 
-3 9 13 0 
14 -13 4 0 
-10 9 5 0 
2 -6 8 0 
6 7 -6 0 
15 13 -13 0 
-11 7 13 0 
3 -7 10 0 
5 12 -14 0 
-2 8 7 0 
15 14 -1 0 
-13 14 1 0 
1 1 -5 0 
8 -6 1 0 
6 7 -7 0 
1 8 -15 0 
3 14 -11 0 
7 -15 10 0 
6 15 -1 0 
-5 7 7 0 
11 -3 2 0 
8 -2 4 0 
-4 9 5 0 
11 14 -14 0 
-2 1 12 0 
2 -7 12 0 
14 2 -7 0 
4 -3 5 0 
3 -4 9 0 
-7 2 5 0 
